6,1,4,1,15,1,12,2,5,1,3,3,9,3,14,4,13,3,7,5,11,4,8,5,3,5,10,5,1,4,2,5;1,1,12,1,4,2,2,2,14,2,8,2,7,4,6,3,9,4,15,2,13,4,10,4,11,5,5,5;10,1,9,1,7,2,8,1,2,3,14,3,5,2,11,1,6,4,4,3,11,3,15,3,5,3,3,4,1,3,13,5,12,5,1,5;2,1,7,1,6,2,14,1,3,2,12,3,13,2,10,3,11,2,8,3,1,2,4,4,5,4,15,5;3,1,13,1,9,2,7,3,10,2,12,4,9,5,8,4,6,5,14,5,2,4,15,4,4,5;
